GLPSOL: GLPK LP/MIP Solver, v4.55
Parameter(s) specified in the command line:
 -m tmp.mod
Reading model section from tmp.mod...
Reading data section from tmp.mod...
1692 lines were read
Generating obj...
Generating kirhoff...
Generating init_charge...
Generating batt_size...
Model has been successfully generated
GLPK Simplex Optimizer, v4.55
2915 rows, 2939 columns, 6188 non-zeros
Preprocessing...
1649 rows, 2844 columns, 6027 non-zeros
Scaling...
 A: min|aij| =  1.000e+00  max|aij| =  1.000e+00  ratio =  1.000e+00
Problem data seem to be well scaled
Constructing initial basis...
Size of triangular part is 1272
      0: obj =   0.000000000e+00  infeas =  6.480e+02 (377)
*   433: obj =   5.000000000e+01  infeas =  0.000e+00 (293)
*   500: obj =   2.300000000e+01  infeas =  0.000e+00 (293)
*   551: obj =   1.600000000e+01  infeas =  0.000e+00 (293)
OPTIMAL LP SOLUTION FOUND
Time used:   0.1 secs
Memory used: 6.3 Mb (6603299 bytes)
#OUTPUT:
16
-20 0 -5 0 0 -1 0 0 0 0 0 -8 0 0 -2 0 0 0 0 0 -6 0 0 0 0 0 0 0 0 0 0 -2 0 0 0 2 0 -1 0 7 0 0 0 0 0 0 -5 0 0 0 0 0 0 0 0 0 0 -10 1 0 0 0 0 6 0 -2 0 0 -1 -5 0 2 0 0 0 0 0 0 0 0 0 0 0 0 0 0 0 0 0 0 0 0 -6 0 0 1 5 0 0 -2 0 0 0 0 0 0 0 0 0 0 0 0 0 0 0 0 0 0 0 0 0 0 0 0 0 0 0 0 0 0 0 0 0 0 0 0 0 0 0 0 0 0 0 0 0 0 0 0 
-15 0 -15 0 0 0 0 0 0 0 0 0 0 0 0 0 0 0 0 0 0 0 0 0 0 0 0 0 0 0 0 0 0 -1 0 0 0 0 0 0 0 0 0 0 0 0 -15 -1 0 0 -20 0 0 0 0 0 0 0 0 0 0 0 0 0 0 0 0 0 0 -14 0 0 0 0 0 0 0 0 -1 0 0 0 0 0 0 0 0 0 0 0 0 0 0 0 0 0 14 0 0 0 0 0 0 1 0 0 0 0 0 0 0 0 0 0 0 0 0 0 0 0 0 0 0 0 0 0 0 0 0 0 0 0 0 0 0 0 0 0 0 0 0 0 0 0 0 0 0 0 
-11 -11 -12 1 1 -1 0 0 0 0 0 0 -11 0 -5 -11 0 1 0 1 1 0 0 0 0 -11 0 0 0 0 -11 -5 0 6 0 0 0 -1 0 0 0 0 0 0 0 0 -5 -1 0 0 0 0 0 0 0 0 0 0 1 0 0 0 0 -1 0 0 0 0 -1 -11 0 0 0 0 0 0 0 0 -1 0 0 0 0 0 0 0 0 0 0 0 0 0 1 0 0 1 11 0 0 0 0 0 0 1 0 0 0 0 0 0 0 0 0 0 0 0 0 0 0 0 0 0 0 0 0 0 0 0 0 0 0 0 0 0 0 0 0 0 0 0 0 0 0 0 0 0 0 0 
-7 -12 -1 -1 -1 0 0 0 0 0 0 -5 -12 0 -11 -12 0 -1 0 3 0 0 0 0 0 0 0 0 0 0 0 -11 0 0 0 -3 0 0 0 0 0 0 0 0 0 0 0 -1 0 0 0 0 0 0 0 -18 0 0 0 0 0 0 -2 0 0 2 0 0 0 0 0 -3 0 0 0 0 0 0 -1 0 0 -12 0 0 0 0 0 0 0 0 0 0 0 0 0 0 0 0 -2 2 -4 4 0 1 0 0 0 0 0 0 0 0 0 0 0 0 0 0 0 0 0 0 0 0 0 0 0 0 0 0 0 0 0 0 0 0 0 0 0 0 0 0 0 0 0 0 0 0 
-2 0 -1 0 0 0 0 0 0 0 0 -1 0 0 0 0 0 0 0 -1 0 0 0 0 0 0 0 0 0 0 0 0 0 0 0 -1 0 0 0 0 0 0 0 0 0 0 0 -1 0 0 0 0 0 0 0 0 0 0 0 0 0 0 0 0 0 0 0 0 0 0 0 -1 0 0 0 0 0 0 -1 0 0 0 0 0 0 0 0 0 0 0 0 0 0 0 0 0 0 0 0 0 1 -1 0 1 0 0 0 0 0 0 0 0 0 0 0 0 0 0 0 0 0 0 0 0 0 0 0 0 0 0 0 0 0 0 0 0 0 0 0 0 0 0 0 0 0 0 0 0 
-21 0 -3 -15 -1 0 0 0 0 0 0 -3 0 0 -2 0 0 -1 0 -7 0 0 0 0 0 0 0 0 -14 0 0 -2 0 6 0 -3 0 0 0 0 0 0 0 0 0 0 5 -1 0 0 0 0 0 0 0 0 0 0 1 -14 0 0 0 0 0 -2 0 0 -1 -2 0 -3 0 0 0 -1 -14 0 -1 0 0 0 0 0 0 0 0 0 0 -14 0 0 0 0 0 1 1 1 0 -2 6 -5 0 1 0 0 0 0 0 0 0 0 0 0 0 0 0 0 0 0 0 0 0 0 0 0 0 0 0 0 0 0 0 0 0 0 0 0 0 0 0 0 0 0 0 0 0 0 
0 0 0 0 0 0 0 0 0 0 0 0 0 0 0 0 0 0 0 0 0 0 0 0 0 0 0 0 0 0 0 0 0 0 0 0 0 0 0 0 0 0 0 0 0 0 0 0 0 0 0 0 0 0 0 0 0 0 0 0 0 0 0 0 0 0 0 0 0 0 0 0 0 0 0 0 0 0 0 0 0 0 0 0 0 0 0 0 0 0 0 0 0 0 0 0 0 0 0 0 0 0 0 0 0 0 0 0 0 0 0 0 0 0 0 0 0 0 0 0 0 0 0 0 0 0 0 0 0 0 0 0 0 0 0 0 0 0 0 0 0 0 0 0 0 0 0 0 
-21 0 0 -17 0 -1 -1 -1 0 0 0 -3 0 0 0 0 0 0 -1 -3 0 0 0 0 0 0 0 0 -16 -1 0 0 0 0 0 -3 -16 0 0 0 0 1 0 -1 0 0 0 0 0 16 0 0 0 0 0 0 0 0 0 0 -1 0 0 0 0 0 0 0 0 0 0 -3 0 0 0 0 0 0 0 0 0 0 0 0 0 0 0 -1 0 -16 0 1 0 0 0 0 0 0 0 0 3 -3 0 0 0 1 0 0 0 0 0 0 0 0 0 0 0 0 0 0 0 0 0 0 0 0 0 0 0 0 0 0 0 0 0 0 0 0 0 0 0 0 0 0 0 0 0 0 
-17 -11 0 -10 -1 0 -7 0 0 0 0 0 -11 0 -2 -11 0 -1 0 3 -7 0 0 0 0 0 0 0 -2 0 0 -2 0 0 0 0 0 0 0 0 0 0 0 0 0 0 0 0 0 0 0 0 -2 0 0 0 0 0 1 0 0 0 0 6 0 -2 0 0 0 0 0 0 0 0 0 6 0 0 0 0 -7 0 0 0 0 0 0 0 -1 -2 0 0 -6 -2 -1 1 0 0 0 -2 -4 -2 0 0 -2 0 0 0 0 0 0 0 0 0 0 0 0 0 0 0 0 0 0 0 0 0 0 0 0 0 0 0 0 0 0 0 0 0 0 0 0 0 0 0 0 0 0 0 
#OUTPUT END
Model has been successfully processed
